1 1200 6
2 945 5
8 919 5
25 903 5
28 894 5
288 887 5
399 877 5



1 1213 5
2 1013 5
3 984 5
6 960 5
8 950 5
12 935 5
17 925 5
18 912 5
36 910 5
41 898 5
124 885 5
181 870 5
789 869 5



1 1151 5
2 1029 5
3 979 5
6 921 5
10 920 5
28 907 5
37 905 5
39 898 5
100 894 5
118 882 5
208 880 5
295 867 5
576 865 5



1 1175 6
2 986 5
3 974 5
4 959 5
7 928 5
17 921 5
38 878 5
463 872 5



1 1193 6
2 1047 5
3 976 5
6 973 5
7 934 5
8 931 5
16 905 5
28 898 5
149 888 5
189 878 5
454 871 5
759 859 5



